c cnf generated file for haplotype inference
c author: Fernando Augusto Fernandes Braz
c contact: fernando.afb@gmail.com
p cnf 132 522
 1 0
 37 -61 0
 37 -67 0
 41 -62 0
 41 -68 0
 45 -63 0
 45 -69 0
 49 -64 0
 49 -70 0
 53 -65 0
 53 -71 0
 57 -66 0
 57 -72 0
 5  6 0
-5 -6 0
 38 -5 -61 0
-38  5 -61 0
 38 -6 -67 0
-38  6 -67 0
 42 -5 -62 0
-42  5 -62 0
 42 -6 -68 0
-42  6 -68 0
 46 -5 -63 0
-46  5 -63 0
 46 -6 -69 0
-46  6 -69 0
 50 -5 -64 0
-50  5 -64 0
 50 -6 -70 0
-50  6 -70 0
 54 -5 -65 0
-54  5 -65 0
 54 -6 -71 0
-54  6 -71 0
 58 -5 -66 0
-58  5 -66 0
 58 -6 -72 0
-58  6 -72 0
 61 -97 0
-61  97  67 -103 0
-61  97  67 -103 0
-67  103 0
-97 -61 0
-103 -67 0
-98 -62 0
-104 -68 0
-99 -63 0
-105 -69 0
-100 -64 0
-106 -70 0
-101 -65 0
-107 -71 0
-102 -66 0
-108 -72 0
 61  97 -98 0
-61  98 0
-97  98 0
 67  103 -104 0
-67  104 0
-103  104 0
 62  98 -99 0
-62  99 0
-98  99 0
 68  104 -105 0
-68  105 0
-104  105 0
 63  99 -100 0
-63  100 0
-99  100 0
 69  105 -106 0
-69  106 0
-105  106 0
 64  100 -101 0
-64  101 0
-100  101 0
 70  106 -107 0
-70  107 0
-106  107 0
 65  101 -102 0
-65  102 0
-101  102 0
 71  107 -108 0
-71  108 0
-107  108 0
 102 0
 108 0
 8  9 0
-8 -9 0
 39 -8 -61 0
-39  8 -61 0
 39 -9 -67 0
-39  9 -67 0
 43 -8 -62 0
-43  8 -62 0
 43 -9 -68 0
-43  9 -68 0
 47 -8 -63 0
-47  8 -63 0
 47 -9 -69 0
-47  9 -69 0
 51 -8 -64 0
-51  8 -64 0
 51 -9 -70 0
-51  9 -70 0
 55 -8 -65 0
-55  8 -65 0
 55 -9 -71 0
-55  9 -71 0
 59 -8 -66 0
-59  8 -66 0
 59 -9 -72 0
-59  9 -72 0
 61 -97 0
-61  97  67 -103 0
-61  97  67 -103 0
-67  103 0
-97 -61 0
-103 -67 0
-98 -62 0
-104 -68 0
-99 -63 0
-105 -69 0
-100 -64 0
-106 -70 0
-101 -65 0
-107 -71 0
-102 -66 0
-108 -72 0
 61  97 -98 0
-61  98 0
-97  98 0
 67  103 -104 0
-67  104 0
-103  104 0
 62  98 -99 0
-62  99 0
-98  99 0
 68  104 -105 0
-68  105 0
-104  105 0
 63  99 -100 0
-63  100 0
-99  100 0
 69  105 -106 0
-69  106 0
-105  106 0
 64  100 -101 0
-64  101 0
-100  101 0
 70  106 -107 0
-70  107 0
-106  107 0
 65  101 -102 0
-65  102 0
-101  102 0
 71  107 -108 0
-71  108 0
-107  108 0
 102 0
 108 0
 10 0
 40 -61 0
 40 -67 0
 44 -62 0
 44 -68 0
 48 -63 0
 48 -69 0
 52 -64 0
 52 -70 0
 56 -65 0
 56 -71 0
 60 -66 0
 60 -72 0
 14  15 0
-14 -15 0
 37 -14 -73 0
-37  14 -73 0
 37 -15 -79 0
-37  15 -79 0
 41 -14 -74 0
-41  14 -74 0
 41 -15 -80 0
-41  15 -80 0
 45 -14 -75 0
-45  14 -75 0
 45 -15 -81 0
-45  15 -81 0
 49 -14 -76 0
-49  14 -76 0
 49 -15 -82 0
-49  15 -82 0
 53 -14 -77 0
-53  14 -77 0
 53 -15 -83 0
-53  15 -83 0
 57 -14 -78 0
-57  14 -78 0
 57 -15 -84 0
-57  15 -84 0
 73 -109 0
-73  109  79 -115 0
-73  109  79 -115 0
-79  115 0
-109 -73 0
-115 -79 0
-110 -74 0
-116 -80 0
-111 -75 0
-117 -81 0
-112 -76 0
-118 -82 0
-113 -77 0
-119 -83 0
-114 -78 0
-120 -84 0
 73  109 -110 0
-73  110 0
-109  110 0
 79  115 -116 0
-79  116 0
-115  116 0
 74  110 -111 0
-74  111 0
-110  111 0
 80  116 -117 0
-80  117 0
-116  117 0
 75  111 -112 0
-75  112 0
-111  112 0
 81  117 -118 0
-81  118 0
-117  118 0
 76  112 -113 0
-76  113 0
-112  113 0
 82  118 -119 0
-82  119 0
-118  119 0
 77  113 -114 0
-77  114 0
-113  114 0
 83  119 -120 0
-83  120 0
-119  120 0
 114 0
 120 0
 16 0
 38 -73 0
 38 -79 0
 42 -74 0
 42 -80 0
 46 -75 0
 46 -81 0
 50 -76 0
 50 -82 0
 54 -77 0
 54 -83 0
 58 -78 0
 58 -84 0
-19 0
-39 -73 0
-39 -79 0
-43 -74 0
-43 -80 0
-47 -75 0
-47 -81 0
-51 -76 0
-51 -82 0
-55 -77 0
-55 -83 0
-59 -78 0
-59 -84 0
 23  24 0
-23 -24 0
 40 -23 -73 0
-40  23 -73 0
 40 -24 -79 0
-40  24 -79 0
 44 -23 -74 0
-44  23 -74 0
 44 -24 -80 0
-44  24 -80 0
 48 -23 -75 0
-48  23 -75 0
 48 -24 -81 0
-48  24 -81 0
 52 -23 -76 0
-52  23 -76 0
 52 -24 -82 0
-52  24 -82 0
 56 -23 -77 0
-56  23 -77 0
 56 -24 -83 0
-56  24 -83 0
 60 -23 -78 0
-60  23 -78 0
 60 -24 -84 0
-60  24 -84 0
 73 -109 0
-73  109  79 -115 0
-73  109  79 -115 0
-79  115 0
-109 -73 0
-115 -79 0
-110 -74 0
-116 -80 0
-111 -75 0
-117 -81 0
-112 -76 0
-118 -82 0
-113 -77 0
-119 -83 0
-114 -78 0
-120 -84 0
 73  109 -110 0
-73  110 0
-109  110 0
 79  115 -116 0
-79  116 0
-115  116 0
 74  110 -111 0
-74  111 0
-110  111 0
 80  116 -117 0
-80  117 0
-116  117 0
 75  111 -112 0
-75  112 0
-111  112 0
 81  117 -118 0
-81  118 0
-117  118 0
 76  112 -113 0
-76  113 0
-112  113 0
 82  118 -119 0
-82  119 0
-118  119 0
 77  113 -114 0
-77  114 0
-113  114 0
 83  119 -120 0
-83  120 0
-119  120 0
 114 0
 120 0
 26  27 0
-26 -27 0
 37 -26 -85 0
-37  26 -85 0
 37 -27 -91 0
-37  27 -91 0
 41 -26 -86 0
-41  26 -86 0
 41 -27 -92 0
-41  27 -92 0
 45 -26 -87 0
-45  26 -87 0
 45 -27 -93 0
-45  27 -93 0
 49 -26 -88 0
-49  26 -88 0
 49 -27 -94 0
-49  27 -94 0
 53 -26 -89 0
-53  26 -89 0
 53 -27 -95 0
-53  27 -95 0
 57 -26 -90 0
-57  26 -90 0
 57 -27 -96 0
-57  27 -96 0
 85 -121 0
-85  121  91 -127 0
-85  121  91 -127 0
-91  127 0
-121 -85 0
-127 -91 0
-122 -86 0
-128 -92 0
-123 -87 0
-129 -93 0
-124 -88 0
-130 -94 0
-125 -89 0
-131 -95 0
-126 -90 0
-132 -96 0
 85  121 -122 0
-85  122 0
-121  122 0
 91  127 -128 0
-91  128 0
-127  128 0
 86  122 -123 0
-86  123 0
-122  123 0
 92  128 -129 0
-92  129 0
-128  129 0
 87  123 -124 0
-87  124 0
-123  124 0
 93  129 -130 0
-93  130 0
-129  130 0
 88  124 -125 0
-88  125 0
-124  125 0
 94  130 -131 0
-94  131 0
-130  131 0
 89  125 -126 0
-89  126 0
-125  126 0
 95  131 -132 0
-95  132 0
-131  132 0
 126 0
 132 0
 28 0
 38 -85 0
 38 -91 0
 42 -86 0
 42 -92 0
 46 -87 0
 46 -93 0
 50 -88 0
 50 -94 0
 54 -89 0
 54 -95 0
 58 -90 0
 58 -96 0
 32  33 0
-32 -33 0
 39 -32 -85 0
-39  32 -85 0
 39 -33 -91 0
-39  33 -91 0
 43 -32 -86 0
-43  32 -86 0
 43 -33 -92 0
-43  33 -92 0
 47 -32 -87 0
-47  32 -87 0
 47 -33 -93 0
-47  33 -93 0
 51 -32 -88 0
-51  32 -88 0
 51 -33 -94 0
-51  33 -94 0
 55 -32 -89 0
-55  32 -89 0
 55 -33 -95 0
-55  33 -95 0
 59 -32 -90 0
-59  32 -90 0
 59 -33 -96 0
-59  33 -96 0
 85 -121 0
-85  121  91 -127 0
-85  121  91 -127 0
-91  127 0
-121 -85 0
-127 -91 0
-122 -86 0
-128 -92 0
-123 -87 0
-129 -93 0
-124 -88 0
-130 -94 0
-125 -89 0
-131 -95 0
-126 -90 0
-132 -96 0
 85  121 -122 0
-85  122 0
-121  122 0
 91  127 -128 0
-91  128 0
-127  128 0
 86  122 -123 0
-86  123 0
-122  123 0
 92  128 -129 0
-92  129 0
-128  129 0
 87  123 -124 0
-87  124 0
-123  124 0
 93  129 -130 0
-93  130 0
-129  130 0
 88  124 -125 0
-88  125 0
-124  125 0
 94  130 -131 0
-94  131 0
-130  131 0
 89  125 -126 0
-89  126 0
-125  126 0
 95  131 -132 0
-95  132 0
-131  132 0
 126 0
 132 0
-34 0
-40 -85 0
-40 -91 0
-44 -86 0
-44 -92 0
-48 -87 0
-48 -93 0
-52 -88 0
-52 -94 0
-56 -89 0
-56 -95 0
-60 -90 0
-60 -96 0
